p cnf 7230 16
1074 -1076 0
-853 -1074 1075 0
1074 -1078 0
-885 -1074 1077 0
-1075 1076 0
1072 1073 0
789 -1073 0
-789 -1072 0
1070 1071 0
787 -1071 0
-787 -1070 0
-1077 1078 0
885 -1078 0
853 -1076 0
-1068 1069 0
1068 -1069 0
